Optimal - objective value 180.00000000
     12 z_0_0_1_3                1                       0
     18 z_0_0_2_0                1         -1.66666666666667
     33 z_0_0_4_0                1         -1.66666666666667
     60 z_0_2_2_3                1         -3.07692307692307
     66 z_0_2_3_0                1         -3.84615384615385
     78 z_0_2_4_3                1         -3.84615384615385
     90 z_0_4_0_6                1                       0
    128 z_0_5_1_2                1                       0
    139 z_0_5_2_4                1                       0
    172 z_1_0_1_1                1         -3.55608974358974
    196 z_1_0_4_1                1         -3.55608974358974
    209 z_1_1_0_8                1                       6
    228 z_1_1_3_0                1                       0
    246 z_1_3_0_0                1                       4
    259 z_1_3_1_4                1                       0
    275 z_1_3_3_2                1                       0
    303 z_1_4_1_3                1                       0
    317 z_1_4_4_2                1                       0
    330 z_1_5_0_6                1                       0
    389 z_2_2_2_2                1         -0.769230769230766
    407 z_2_2_4_2                1         -3.84615384615385
    418 z_2_3_0_4                1                       0
    446 z_2_3_3_5                1                       0
    474 z_2_4_1_6                1         7.69230769230769
    492 z_2_5_0_0                1                       0
    505 z_2_5_1_4                1                       0
    510 z_2_5_2_0                1                       0
    546 z_3_0_1_0                1         9.87179487179487
    558 z_3_0_2_3                1         1.66666666666667
    581 z_3_1_0_5                1         -39.1153846153846
    598 z_3_1_2_4                1         -0.221153846153843
    655 z_3_2_3_7                1         23.0769230769231
    661 z_3_2_4_4                1         -3.84615384615385
    681 z_3_3_1_6                1         3.07692307692308
    723 z_3_5_1_3                1         -17.3076923076923
    735 z_3_5_2_6                1                      20
    769 z_4_0_1_4                1                       0
    778 z_4_0_2_4                1         -1.66666666666667
    816 z_4_1_2_3                1         5.22115384615384
    829 z_4_1_3_7                1                       0
    863 z_4_2_2_5                1         6.92307692307692
    868 z_4_2_3_1                1         11.5384615384615
    891 z_4_3_0_6                1                       0
    930 z_4_4_0_0                1                       0
    962 z_4_4_4_8                1                       0
    966 z_4_5_0_3                1                       0
    972 z_4_5_1_0                1                       0
   1019 z_5_0_1_2                1         -1.66666666666667
   1032 z_5_0_2_6                1         11.1666666666667
   1049 z_5_1_0_2                1                    -4.5
   1075 z_5_1_3_1                1                      -1
   1114 z_5_2_2_4                1                       0
   1123 z_5_2_3_4                1                       0
   1140 z_5_3_0_3                1                       0
   1149 z_5_3_1_3                1                       0
   1191 z_5_4_1_0                1                       0
   1211 z_5_4_4_5                1                       0
   1219 z_5_5_0_4                1                       0
   1225 z_5_5_1_1                1                       0
   1236 z_5_5_2_3                1                       0
   1261 w_0_1                    1         6.66666666666667
   1262 w_0_2                    1                       0
   1264 w_0_4                    1                      10
   1265 w_1_0                    1                       0
   1267 w_1_2                    1                       0
   1268 w_1_3                    1                       0
   1272 w_2_2                    1                       0
   1273 w_2_3                    1         -1.53846153846154
   1274 w_2_4                    1         2.30769230769231
   1275 w_3_0                    1                      10
   1276 w_3_1                    1                      10
   1278 w_3_3                    1                      10
   1280 w_4_0                    1                      10
   1281 w_4_1                    1                      10
   1284 w_4_4                    1                      10
   1285 w_5_0                    1                      10
   1286 w_5_1                    1                      10
   1287 w_5_2                    1                      10
   1295 o_0_1_0                  1                       0
   1296 o_0_1_1     1.000000000001                       0
   1297 o_0_1_2                  1                       0
   1298 o_0_1_3                  1                       0
   1299 o_0_1_4     1.000000000001                       0
   1300 o_0_2_0                  1                       0
   1301 o_0_2_1                  1                       0
   1302 o_0_2_2                  1                       0
   1303 o_0_2_3    1.00000000000182         -3.33333333333333
   1304 o_0_2_4    1.00000000000182                       0
   1310 o_0_4_0                  1                       0
   1311 o_0_4_1                  1                       0
   1315 o_1_0_0                  1                       0
   1316 o_1_0_1                  1                       0
   1317 o_1_0_2                  1                       0
   1318 o_1_0_3    0.999999999998844                       0
   1319 o_1_0_4    0.999999999998844                       0
   1328 o_1_2_3                  1                       0
   1329 o_1_2_4                  1                       0
   1330 o_1_3_0    0.999999999999605                       0
   1331 o_1_3_1    1.0000000000001                       0
   1332 o_1_3_2    1.00000000000126                    -5.5
   1333 o_1_3_3    0.999999999999605                       0
   1350 o_2_2_0    0.99999999999958                       0
   1351 o_2_2_1    0.999999999998739                       0
   1352 o_2_2_2    0.99999999999958                       0
   1353 o_2_2_3    0.99999999999958                       0
   1354 o_2_2_4    0.99999999999958                       0
   1355 o_2_3_0                  1                       0
   1356 o_2_3_1                  1                       0
   1357 o_2_3_2                  1                       0
   1358 o_2_3_3                  1                       0
   1359 o_2_3_4                  1                       0
   1362 o_2_4_2                  1                       0
   1363 o_2_4_3                  1                       0
   1364 o_2_4_4                  1                       0
   1365 o_3_0_0                  1                       0
   1366 o_3_0_1    0.9999999999975                       0
   1367 o_3_0_2    0.999999999997693                       0
   1368 o_3_0_3    1.00000000000019                       0
   1369 o_3_0_4                  1                       0
   1371 o_3_1_1     1.000000000001                       0
   1372 o_3_1_2                  1                       0
   1373 o_3_1_3    1.0000000000025                       0
   1374 o_3_1_4     1.000000000001                       0
   1380 o_3_3_0     1.000000000001                       0
   1381 o_3_3_1                  1                       0
   1382 o_3_3_2     1.000000000001                       0
   1390 o_4_0_0                  1                       0
   1391 o_4_0_1                  1                       0
   1392 o_4_0_2                  1                       0
   1395 o_4_1_0                  1                       0
   1396 o_4_1_1                  1                       0
   1397 o_4_1_2                  1                       0
   1398 o_4_1_3                  1                       0
   1410 o_4_4_0                  1                       0
   1411 o_4_4_1                  1                       0
   1412 o_4_4_2     1.000000000001                       0
   1413 o_4_4_3                  1                       0
   1414 o_4_4_4                  1                       0
   1415 o_5_0_0                  1                       0
   1416 o_5_0_1                  1                       0
   1417 o_5_0_2    1.0000000000005                       0
   1418 o_5_0_3    0.9999999999975                       0
   1419 o_5_0_4                  1                       0
   1420 o_5_1_0    1.0000000000005                       0
   1421 o_5_1_1     1.000000000001                       0
   1422 o_5_1_2                  1                       0
   1423 o_5_1_3                  1                       0
   1424 o_5_1_4                  1                       0
   1425 o_5_2_0     1.000000000001                       0
   1426 o_5_2_1                  1                       0
   1427 o_5_2_2                  1                       0
   1428 o_5_2_3                  1                       0
   1429 o_5_2_4                  1                       0
   1441 e_0_0_1                  1                       0
   1442 e_0_0_2                  1                       0
   1447 e_0_1_2                  1                       0
   1448 e_0_1_3                  1                       0
   1450 e_0_2_0                  1                       0
   1453 e_0_2_3                  1                       0
   1454 e_0_2_4                  1                       0
   1455 e_0_3_0                  1                       0
   1460 e_0_4_0                  1                       0
   1463 e_0_4_3                  1                       0
   1465 e_1_0_0                  1                      -4
   1466 e_1_0_1                  1                       0
   1467 e_1_0_2                  1                       0
   1468 e_1_0_3                  1                       0
   1469 e_1_0_4                  1                       0
   1471 e_1_1_1                  1                       0
   1473 e_1_1_3                  1                       0
   1474 e_1_1_4                  1                       0
   1480 e_1_3_0                  1                       0
   1482 e_1_3_2                  1                       0
   1486 e_1_4_1                  1                       0
   1487 e_1_4_2                  1                       0
   1490 e_2_0_0                  1                       0
   1494 e_2_0_4                  1                       0
   1496 e_2_1_1                  1         -7.69230769230769
   1497 e_2_1_2                  1                       0
   1499 e_2_1_4                  1                       0
   1500 e_2_2_0                  1                       0
   1502 e_2_2_2                  1                       0
   1505 e_2_3_0                  1                       0
   1506 e_2_3_1    0.999999999999807                       0
   1512 e_2_4_2                  1                       0
   1515 e_3_0_0                  1                       0
   1516 e_3_0_1                  1                       0
   1520 e_3_1_0     1.000000000003         -11.5384615384615
   1521 e_3_1_1                  1         -23.0769230769231
   1522 e_3_1_2    0.999999999999496                       0
   1523 e_3_1_3     0.999999999999                       0
   1526 e_3_2_1    0.999999999998151                       0
   1527 e_3_2_2                  1                     -20
   1528 e_3_2_3    1.00000000000185                       0
   1529 e_3_2_4                  1                       0
   1532 e_3_3_2                  1                       0
   1533 e_3_3_3                  1         -34.6153846153846
   1539 e_3_4_4    0.999999999996303                       0
   1540 e_4_0_0                  1                       0
   1541 e_4_0_1                  1                       0
   1542 e_4_0_2    0.999999999999227                       0
   1543 e_4_0_3    0.999999999998037                       0
   1545 e_4_1_0                  1                       0
   1549 e_4_1_4    1.00000000000077                       0
   1550 e_4_2_0                  1                       0
   1551 e_4_2_1                  1                       0
   1553 e_4_2_3                  1                       0
   1554 e_4_2_4                  1                       0
   1556 e_4_3_1                  1                       0
   1557 e_4_3_2                  1                       0
   1558 e_4_3_3                  1                       0
   1563 e_4_4_3                  1                       0
   1564 e_4_4_4                  1                       0
   1567 e_5_0_2    0.9999999999975                       0
   1568 e_5_0_3                  1                       0
   1569 e_5_0_4                  1                       0
   1570 e_5_1_0                  1                       0
   1571 e_5_1_1                  1                       0
   1572 e_5_1_2                  1                       0
   1573 e_5_1_3    1.0000000000025                       0
   1576 e_5_2_1                  1                       0
   1577 e_5_2_2    1.00000000000185                    -4.5
   1578 e_5_2_3    1.00000000000035                       0
   1579 e_5_2_4    1.00000000000035                       0
   1581 e_5_3_1    1.0000000000001                       0
   1584 e_5_3_4                  1                       0
   1585 e_5_4_0                  1                       0
   1586 e_5_4_1                  1                       0
   1601 af_0_1_0    0.999999999999                       0
   1602 bf_0_1_1    1.000000000002                       0
   1603 af_0_1_1                 1                       0
   1604 bf_0_1_2                 1                       0
   1605 af_0_1_2                 1                       0
   1606 bf_0_1_3                 1                       0
   1607 af_0_1_3                 1                       0
   1608 bf_0_1_4                 1                       0
   1611 af_0_2_0                 1                       0
   1612 bf_0_2_1    1.000000000001                       0
   1613 af_0_2_1    0.999999999999                       0
   1614 bf_0_2_2                 1                       0
   1615 af_0_2_2                 1                       0
   1616 bf_0_2_3                 1                       0
   1617 af_0_2_3                 1                       0
   1618 bf_0_2_4   1.00000000000182                       0
   1631 af_0_4_0    0.999999999999                       0
   1632 bf_0_4_1                 1                       0
   1634 bf_0_4_2                 1                       0
   1636 bf_0_4_3    1.000000000001                       0
   1638 bf_0_4_4                 1                       0
   1641 af_1_0_0    0.999999999999                       0
   1642 bf_1_0_1    1.000000000001                       0
   1643 af_1_0_1                 1                       0
   1644 bf_1_0_2                 1                       0
   1645 af_1_0_2                 1                       0
   1646 bf_1_0_3                 1                       0
   1647 af_1_0_3                 1                       0
   1648 bf_1_0_4   0.999999999998844                       0
   1661 af_1_2_0                 1                       0
   1663 af_1_2_1   0.999999999997984                       0
   1665 af_1_2_2                 1                       0
   1667 af_1_2_3   0.999999999998278                       0
   1668 bf_1_2_4                 1                       0
   1671 af_1_3_0                 1                       0
   1672 bf_1_3_1                 1                       0
   1673 af_1_3_1                 1                       0
   1674 bf_1_3_2    0.999999999999                       0
   1675 af_1_3_2                 1                       0
   1676 bf_1_3_3                 1                       0
   1678 bf_1_3_4   0.999999999999605                       0
   1711 af_2_2_0                 1                       0
   1712 bf_2_2_1                 1                       0
   1713 af_2_2_1   0.99999999999958                       0
   1714 bf_2_2_2    0.999999999999                       0
   1715 af_2_2_2   0.999999999997245                       0
   1716 bf_2_2_3                 1                       0
   1717 af_2_2_3   0.99999999999958                       0
   1718 bf_2_2_4                 1                       0
   1721 af_2_3_0                 1                       0
   1722 bf_2_3_1                 1                       0
   1723 af_2_3_1                 1                       0
   1724 bf_2_3_2                 1                       0
   1725 af_2_3_2                 1                       0
   1726 bf_2_3_3    0.999999999999                       0
   1727 af_2_3_3                 1                       0
   1728 bf_2_3_4                 1                       0
   1731 af_2_4_0                 1                       0
   1733 af_2_4_1    0.999999999999                       0
   1735 af_2_4_2    0.999999999999                       0
   1736 bf_2_4_3    1.000000000001                       0
   1737 af_2_4_3                 1                       0
   1738 bf_2_4_4                 1                       0
   1741 af_3_0_0                 1                       0
   1742 bf_3_0_1                 1                       0
   1743 af_3_0_1                 1                       0
   1744 bf_3_0_2   0.9999999999975                       0
   1745 af_3_0_2                 1                       0
   1746 bf_3_0_3                 1                       0
   1747 af_3_0_3                 1                       0
   1748 bf_3_0_4   1.00000000000019                       0
   1751 af_3_1_0   0.9999999999995                       0
   1753 af_3_1_1   1.0000000000005                       0
   1754 bf_3_1_2                 1                       0
   1755 af_3_1_2   1.0000000000015                       0
   1756 bf_3_1_3                 1                       0
   1757 af_3_1_3                 1                       0
   1758 bf_3_1_4   1.0000000000025                       0
   1771 af_3_3_0    0.999999999999                       0
   1772 bf_3_3_1                 1                       0
   1773 af_3_3_1    0.999999999999                       0
   1774 bf_3_3_2    1.000000000001                       0
   1776 bf_3_3_3                 1                       0
   1778 bf_3_3_4                 1                       0
   1791 af_4_0_0    0.999999999998                       0
   1792 bf_4_0_1                 1                       0
   1793 af_4_0_1                 1                       0
   1794 bf_4_0_2    0.999999999999                       0
   1796 bf_4_0_3                 1                       0
   1798 bf_4_0_4    0.999999999999                       0
   1801 af_4_1_0                 1                       0
   1802 bf_4_1_1                 1                       0
   1803 af_4_1_1                 1                       0
   1804 bf_4_1_2    0.999999999999                       0
   1805 af_4_1_2    1.000000000001                       0
   1806 bf_4_1_3                 1                       0
   1808 bf_4_1_4    0.999999999999                       0
   1831 af_4_4_0    0.999999999996                       0
   1832 bf_4_4_1    0.999999999998                       0
   1833 af_4_4_1    0.999999999999                       0
   1834 bf_4_4_2    1.000000000002                       0
   1835 af_4_4_2                 1                       0
   1836 bf_4_4_3                 1                       0
   1837 af_4_4_3    1.000000000002                       0
   1838 bf_4_4_4                 1                       0
   1841 af_5_0_0                 1                       0
   1842 bf_5_0_1   1.0000000000015                       0
   1843 af_5_0_1   0.9999999999985                       0
   1844 bf_5_0_2   1.0000000000005                       0
   1845 af_5_0_2   0.9999999999975                       0
   1846 bf_5_0_3   0.9999999999995                       0
   1847 af_5_0_3   0.9999999999985                       0
   1848 bf_5_0_4   0.9999999999975                       0
   1851 af_5_1_0    0.999999999999                       0
   1852 bf_5_1_1    1.000000000001                       0
   1853 af_5_1_1    0.999999999999                       0
   1854 bf_5_1_2                 1                       0
   1855 af_5_1_2                 1                       0
   1856 bf_5_1_3                 1                       0
   1857 af_5_1_3    1.000000000001                       0
   1858 bf_5_1_4                 1                       0
   1861 af_5_2_0                 1                       0
   1862 bf_5_2_1                 1                       0
   1863 af_5_2_1    0.999999999996                       0
   1864 bf_5_2_2                 1                       0
   1865 af_5_2_2    0.999999999996                       0
   1866 bf_5_2_3                 1                       0
   1867 af_5_2_3    0.999999999998                       0
   1868 bf_5_2_4                 1                       0
